50
150
99
96
95
95
94
93
93
92
91
91
90
89
87
86
86
84
81
80
73
68
66
64
62
61
61
59
59
56
55
54
49
48
48
47
46
45
45
43
42
41
41
40
39
37
36
34
32
26
24
20
